nNurses = 156;
nHours = 36;
minHours = 3;
maxHours = 19;
maxConsec = 13;
maxPresence = 13;
demand = [10, 7, 12, 11, 9, 13, 15, 17, 18, 16, 12, 17, 17, 16, 15, 16, 14, 16, 19, 17, 22, 19, 21, 21, 18, 14, 17, 20, 15, 15, 14, 15, 18, 23, 25, 20];
